networks/zoo_146_1988/zoo_146_1988-lower.txt
Number of groups: 67
Flow 1: {1 2 0} {2 77 0} 
Flow 2: {2 4 0} {4 79 0} 
Flow 3: {4 11 0} {11 6 0} {6 81 0} 
Flow 4: {2 7 0} {7 82 0} 
Flow 5: {7 8 0} {8 83 0} 
Flow 6: {11 86 0} 
Flow 7: {11 12 0} {12 87 0} 
Flow 8: {1 64 0} {64 63 0} {63 59 0} {59 47 0} {47 13 0} {13 88 0} 
Flow 9: {61 16 0} {16 91 0} 
Flow 9: {59 26 0} {26 61 0} Flow 10: {59 18 0} {18 17 0} {17 92 0} 
Flow 11: {18 93 0} 
Flow 12: {26 21 0} {21 96 0} 
Flow 13: {26 25 0} {25 24 0} {24 99 0} 
Flow 14: {25 100 0} 
Flow 15: {26 101 0} 
Flow 16: {59 56 0} {56 27 0} {27 102 0} 
Flow 17: {59 41 0} {41 28 0} {28 103 0} 
Flow 18: {28 29 0} {29 104 0} 
Flow 19: {18 30 0} {30 105 0} 
Flow 20: {26 32 0} {32 107 0} 
Flow 21: {11 33 0} {33 108 0} 
Flow 22: {13 35 0} {35 110 0} 
Flow 23: {18 39 0} {39 49 0} {49 36 0} {36 111 0} 
Flow 24: {61 37 0} {37 112 0} 
Flow 25: {26 40 0} {40 115 0} 
Flow 26: {41 116 0} 
Flow 27: {41 42 0} {42 117 0} 
Flow 28: {59 46 0} {46 43 0} {43 118 0} 
Flow 29: {33 45 0} {45 120 0} 
Flow 30: {56 50 0} {50 125 0} 
Flow 31: {7 52 0} {52 127 0} 
Flow 32: {7 53 0} {53 128 0} 
Flow 33: {11 55 0} {55 130 0} 
Flow 34: {52 58 0} {58 57 0} {57 132 0} 
Flow 35: {59 134 0} 
Flow 36: {61 136 0} 
Flow 37: {32 62 0} {62 137 0} 
Flow 38: {63 138 0} 
Flow 39: {64 139 0} 
Flow 40: {53 65 0} {65 140 0} 
Flow 41: {11 67 0} {67 142 0} 
Flow 42: {47 69 0} {69 144 0} 
Flow 43: {2 1 0} {1 76 0} 
Flow 50: {33 47 0} Flow 51: {47 28 0} {28 16 0} Flow 52: {52 59 0} Flow 57: {58 56 0} Flow 64: {37 36 0} {47 61 0} Flow 69: {47 43 0} Flow 77: {27 62 0} Flow 83: {4 2 0} Flow 90: {33 59 0} Flow 96: {61 30 0} Flow 107: {33 65 0} Flow 109: {6 11 0} {11 4 0} Flow 111: {52 3 0} {3 78 0} 
Flow 111: {11 7 0} Flow 114: {6 8 0} Flow 115: {28 10 0} {10 9 0} {9 84 0} 
Flow 116: {10 85 0} 
Flow 120: {13 14 0} {14 89 0} 
Flow 134: {41 34 0} {34 109 0} 
Flow 142: {59 44 0} {44 119 0} 
Flow 147: {7 54 0} {54 129 0} 
Flow 153: {53 63 0} Flow 158: {7 2 0} Flow 162: {8 6 0} Flow 164: {7 11 0} Flow 206: {8 7 0} Flow 234: {9 10 0} {10 28 0} {28 47 0} {47 33 0} {33 11 0} Flow 236: {28 69 0} {69 13 0} Flow 238: {47 59 0} Flow 239: {28 41 0} {41 26 0} Flow 241: {41 56 0} Flow 246: {16 61 0} Flow 247: {59 63 0} Flow 248: {63 64 0} {64 1 0} Flow 267: {69 35 0} Flow 268: {16 15 0} {15 37 0} Flow 270: {41 40 0} Flow 273: {47 45 0} Flow 275: {59 52 0} Flow 276: {65 53 0} Flow 277: {56 57 0} Flow 298: {15 90 0} 
Flow 303: {21 23 0} {23 98 0} 
Flow 317: {26 38 0} {38 113 0} 
Flow 324: {46 121 0} 
Flow 325: {47 122 0} 
Flow 326: {47 48 0} {48 123 0} 
Flow 333: {58 133 0} 
Flow 335: {62 60 0} {60 135 0} 
Flow 343: {59 70 0} {70 145 0} 
Flow 344: {63 71 0} {71 146 0} 
Flow 345: {13 47 0} Flow 352: {13 69 0} {69 28 0} Flow 357: {69 16 0} Flow 393: {14 13 0} Flow 409: {61 26 0} {26 59 0} {37 61 0} Flow 410: {52 7 0} Flow 411: {61 47 0} Flow 417: {15 16 0} {16 69 0} Flow 419: {26 18 0} Flow 423: {26 51 0} {51 27 0} Flow 424: {16 28 0} Flow 439: {63 53 0} Flow 449: {69 47 0} Flow 462: {26 17 0} Flow 484: {43 46 0} Flow 492: {59 58 0} Flow 503: {17 18 0} {18 59 0} Flow 505: {59 33 0} Flow 511: {17 26 0} Flow 517: {26 41 0} Flow 541: {18 26 0} Flow 545: {30 61 0} Flow 578: {19 50 0} {50 56 0} {56 59 0} Flow 579: {56 58 0} {58 52 0} Flow 587: {19 21 0} {21 26 0} Flow 590: {23 24 0} Flow 593: {56 41 0} Flow 618: {20 50 0} Flow 623: {50 19 0} Flow 665: {18 44 0} Flow 669: {21 19 0} Flow 686: {22 21 0} Flow 699: {23 21 0} Flow 717: {24 25 0} {25 26 0} Flow 725: {24 23 0} Flow 758: {6 5 0} {5 80 0} 
Flow 772: {50 20 0} {20 95 0} 
Flow 774: {21 22 0} {22 97 0} 
Flow 789: {39 114 0} 
Flow 799: {61 49 0} {49 124 0} 
Flow 801: {51 126 0} 
Flow 815: {65 66 0} {66 141 0} 
Flow 820: {27 56 0} Flow 830: {27 51 0} {51 26 0} Flow 836: {27 32 0} Flow 875: {29 28 0} Flow 905: {29 42 0} Flow 923: {30 18 0} Flow 938: {31 50 0} Flow 955: {32 26 0} Flow 969: {32 27 0} Flow 1041: {34 41 0} {41 59 0} Flow 1043: {34 29 0} Flow 1059: {36 49 0} {49 39 0} {39 18 0} Flow 1061: {49 61 0} Flow 1079: {36 37 0} Flow 1099: {37 15 0} Flow 1110: {38 26 0} Flow 1118: {38 41 0} Flow 1166: {40 26 0} Flow 1180: {40 41 0} Flow 1229: {41 38 0} Flow 1257: {42 41 0} Flow 1264: {42 29 0} Flow 1294: {46 59 0} Flow 1295: {43 47 0} Flow 1311: {45 33 0} Flow 1313: {45 47 0} Flow 1402: {48 45 0} Flow 1404: {48 47 0} Flow 1556: {3 63 0} Flow 1558: {53 7 0} Flow 1560: {63 3 0} Flow 1583: {65 33 0} Flow 1605: {65 67 0} Flow 1607: {54 7 0} Flow 1647: {55 11 0} Flow 1702: {57 56 0} Flow 1703: {57 58 0} Flow 1746: {58 59 0} Flow 1791: {60 62 0} {62 27 0} Flow 1792: {62 32 0} Flow 1905: {3 52 0} Flow 1929: {66 65 0} Flow 1937: {67 11 0} Flow 1959: {67 65 0} Flow 1962: {68 12 0} {12 11 0} Flow 1963: {68 65 0} Flow 1984: {70 59 0} Time taken running everything: 1 seconds
